GLPSOL: GLPK LP/MIP Solver, v4.55
Parameter(s) specified in the command line:
 -m tmp.mod
Reading model section from tmp.mod...
Reading data section from tmp.mod...
6037 lines were read
Generating obj...
Generating kirhoff...
Generating init_charge...
Generating batt_size...
Model has been successfully generated
GLPK Simplex Optimizer, v4.55
8839 rows, 11410 columns, 24488 non-zeros
Preprocessing...
5980 rows, 11215 columns, 24113 non-zeros
Scaling...
 A: min|aij| =  1.000e+00  max|aij| =  1.000e+00  ratio =  1.000e+00
Problem data seem to be well scaled
Constructing initial basis...
Size of triangular part is 4966
      0: obj =   0.000000000e+00  infeas =  1.034e+04 (1014)
    500: obj =   1.000000000e+00  infeas =  8.242e+03 (884)
   1000: obj =   1.230000000e+02  infeas =  5.515e+03 (819)
   1500: obj =   3.750000000e+02  infeas =  2.805e+03 (806)
   2000: obj =   6.945000000e+02  infeas =  2.750e+02 (785)
*  2342: obj =   7.793846154e+02  infeas =  2.403e-15 (771)
*  2500: obj =   6.770000000e+02  infeas =  0.000e+00 (763)
*  3000: obj =   1.855000000e+02  infeas =  0.000e+00 (753)
*  3287: obj =   9.600000000e+01  infeas =  0.000e+00 (752)
OPTIMAL LP SOLUTION FOUND
Time used:   1.5 secs
Memory used: 23.0 Mb (24092133 bytes)
#OUTPUT:
96
-62 -54 -1 0 0 1 0 0 -61 1 0 -35 -7 0 1 0 0 0 0 0 2 0 0 -4 0 -5 0 5 0 0 0 0 0 -43 0 -9 0 0 -1 0 0 -1 0 -1 0 0 -27 0 0 -2 1 0 0 2 5 0 0 -2 -27 0 0 -11 0 3 0 0 0 -5 0 0 0 0 0 0 0 0 0 0 0 0 0 0 0 0 0 0 0 0 -1 0 0 0 0 4 0 0 0 0 0 0 0 0 0 0 0 0 0 0 0 0 0 0 0 -2 0 0 0 0 0 -4 0 -29 0 3 0 0 0 0 0 0 0 0 0 11 0 0 0 0 0 0 0 0 0 0 0 0 0 0 0 0 0 0 0 0 0 0 0 0 0 0 0 0 0 0 0 -7 0 0 0 0 0 0 3 0 -15 0 0 0 0 0 0 0 0 0 0 0 0 0 0 -3 0 0 0 0 -11 0 0 0 2 0 -4 0 0 0 0 0 0 0 0 0 0 0 0 0 0 0 0 0 0 0 0 0 0 -39 0 0 0 0 0 0 0 0 0 0 0 0 0 0 0 0 0 0 -7 0 -5 1 0 -5 0 -2 0 0 1 1 0 -2 -9 0 9 -5 0 0 0 2 0 0 0 0 0 0 0 0 0 0 0 7 4 -7 0 -22 -39 0 0 0 0 0 3 0 11 -2 0 0 0 0 0 0 0 0 0 0 0 39 0 0 0 0 0 0 0 0 0 0 0 0 0 0 0 0 0 0 0 0 0 0 0 0 0 0 0 0 0 0 0 0 0 0 0 0 0 0 0 0 0 0 0 0 0 0 0 0 0 0 0 0 0 0 0 0 0 0 0 0 0 0 0 0 0 0 0 0 0 0 0 0 0 0 0 0 0 0 0 0 0 0 0 0 0 0 0 0 0 0 0 0 0 
0 -89 0 0 -2 0 0 0 0 -46 2 0 -10 3 0 0 17 0 -2 0 -46 0 0 0 -13 0 0 2 -8 0 -46 0 0 -81 0 -14 0 0 0 0 0 0 0 0 0 -2 43 0 0 0 0 0 0 0 0 0 31 0 0 0 0 0 3 -3 0 0 0 -3 0 0 0 0 0 3 0 0 0 0 0 0 0 0 0 0 0 0 0 0 0 31 0 0 -8 0 0 0 3 0 0 0 0 0 0 0 0 0 0 0 0 0 0 0 0 0 0 0 0 43 0 0 -10 0 0 1 0 0 -8 43 0 0 0 0 0 0 3 1 0 -1 0 -3 0 0 0 -3 0 0 0 0 2 0 0 0 0 0 0 0 0 0 0 0 0 0 0 0 0 -10 0 0 0 0 0 0 -3 0 0 0 0 0 0 0 0 0 0 0 0 9 -10 0 0 -1 0 0 0 -2 0 0 0 0 0 0 0 0 0 0 0 0 0 0 0 0 0 0 0 0 0 0 0 0 0 0 0 -7 0 0 9 0 0 0 0 0 0 0 0 0 0 0 0 -43 0 0 0 0 0 0 -2 0 0 0 0 0 0 0 0 0 -38 0 -14 0 14 -12 0 0 0 0 0 -43 0 0 1 0 0 3 -2 0 0 10 3 0 0 0 0 0 0 -9 10 0 1 -46 0 0 0 0 0 0 0 0 0 0 0 0 7 0 -9 0 0 0 43 0 0 0 0 0 0 0 0 0 0 0 0 0 0 0 0 0 0 0 0 0 0 0 0 0 0 0 0 0 0 0 0 0 0 0 0 0 0 0 0 0 0 0 0 0 0 0 0 0 0 0 0 0 0 0 0 0 0 0 0 0 0 0 0 0 0 0 0 0 0 0 0 0 0 0 0 0 0 0 0 0 0 0 0 0 0 0 0 
-69 -41 -1 -4 -4 -1 -7 0 -53 -22 0 -35 -31 4 -5 9 -16 0 0 4 -22 0 0 0 -22 0 0 0 0 0 0 0 -3 -41 0 -22 1 4 0 0 0 0 0 -4 4 0 0 0 0 6 3 0 0 -22 0 0 0 0 -4 0 0 0 4 0 0 0 0 0 0 0 -53 0 0 0 0 -4 0 0 0 0 0 0 0 0 0 0 -17 0 0 -5 0 0 0 -4 0 0 -3 0 0 -12 0 0 0 0 0 -74 0 0 0 0 -24 0 0 6 0 0 0 4 0 0 0 0 0 0 0 -5 0 4 0 0 0 0 0 24 0 17 0 0 0 0 -4 0 0 0 0 0 0 0 0 0 0 0 0 0 0 0 0 0 0 0 0 0 0 0 0 -7 0 0 0 0 0 0 0 0 -24 16 0 0 0 0 -2 0 0 0 0 0 0 0 0 0 0 0 0 0 0 0 0 0 -4 3 4 0 0 0 -2 0 0 0 0 0 0 0 0 0 0 0 24 0 0 0 0 -7 0 -39 0 0 0 0 0 0 0 0 0 0 0 0 0 -4 0 0 0 0 0 0 0 4 -4 0 0 4 5 0 0 0 -2 0 -22 -17 51 0 0 0 0 -6 0 -4 0 5 0 0 4 0 0 0 0 7 7 -7 0 3 21 -16 0 0 0 0 0 0 24 4 -3 0 0 0 -3 5 0 0 -24 0 7 -21 0 0 0 0 4 0 0 0 0 0 0 0 0 0 0 0 0 0 0 0 0 0 0 0 0 0 0 0 0 0 0 0 0 0 0 0 0 0 0 0 0 0 0 0 0 0 0 0 0 0 0 0 0 0 0 0 0 0 0 0 0 0 0 0 0 0 0 0 0 0 0 0 0 0 0 0 0 0 0 0 0 0 0 0 0 0 0 0 0 0 0 0 0 
-76 -76 0 -5 -9 0 -7 0 -55 -8 0 0 -10 -4 -5 0 -17 -2 0 -7 0 -2 0 -5 -14 9 0 0 -57 0 0 0 3 -28 0 0 -8 5 -4 0 0 -7 0 1 5 0 -41 0 0 0 3 0 -1 0 0 -1 0 1 -41 0 -6 9 -4 0 0 0 0 9 0 3 0 0 -1 0 0 0 0 0 0 0 0 0 0 0 0 0 1 0 -8 0 0 0 -51 -4 0 0 3 0 0 -1 0 0 0 0 3 0 3 0 0 0 0 0 0 0 0 0 -19 0 0 -9 0 0 0 3 0 0 -51 0 0 0 0 0 0 -9 0 0 42 -45 0 0 0 0 0 0 0 0 0 0 0 0 0 0 0 0 0 0 0 0 0 0 0 0 -1 0 0 -10 0 0 0 0 0 0 0 0 0 0 0 0 0 0 -1 0 0 0 0 51 0 0 0 -3 0 0 0 0 9 0 0 0 -4 -6 -4 0 0 0 -1 0 0 0 0 0 0 0 0 0 0 0 0 0 0 0 0 0 0 -24 9 0 0 0 0 0 0 0 0 3 0 0 0 0 0 0 0 0 -7 -1 0 -1 -5 0 0 41 -6 0 9 8 0 0 -42 1 42 0 -3 0 0 0 0 0 0 0 0 0 0 0 0 0 1 10 7 -7 0 24 -24 0 0 -51 0 0 3 0 -9 4 -3 -45 0 0 7 -6 0 0 0 0 0 24 -9 -3 0 0 0 0 0 0 0 0 0 0 0 0 0 0 0 0 0 0 0 0 0 0 0 0 0 0 0 0 0 0 0 0 0 0 0 0 0 0 0 0 0 0 0 0 0 0 0 0 0 0 0 0 0 0 0 0 0 0 0 0 0 0 0 0 0 0 0 0 0 0 0 0 0 0 0 0 0 0 0 0 0 0 0 0 0 0 0 0 0 0 0 
-8 0 -1 0 -4 0 -7 0 0 0 4 -35 0 0 0 -9 7 0 0 -3 0 0 0 0 11 -12 0 0 2 0 -4 0 -3 -2 -2 -3 -4 0 0 0 0 0 0 0 0 0 35 0 0 0 3 0 0 4 -4 0 0 -1 4 0 7 0 0 0 0 0 0 -12 0 0 0 0 0 0 0 0 0 0 10 0 0 0 0 0 0 0 6 0 0 0 0 0 -5 -4 0 0 -3 0 0 0 0 0 0 0 0 0 0 0 0 0 0 0 0 0 0 0 0 31 0 0 0 0 0 0 0 0 -5 31 0 0 0 0 0 0 0 0 0 2 0 0 0 0 0 0 0 0 0 0 0 0 0 0 0 0 0 0 0 0 0 0 0 0 0 0 0 0 0 0 0 0 0 0 -3 4 0 -4 0 0 0 0 0 0 0 0 0 4 0 0 0 0 0 0 0 0 0 0 0 0 -9 3 0 0 0 0 0 0 0 0 0 0 0 0 0 0 0 0 0 0 0 0 0 0 0 29 4 0 0 0 0 0 0 0 0 0 0 0 0 -31 0 0 0 0 0 0 0 0 0 4 0 -4 7 0 0 0 0 -5 -3 6 -3 -16 0 0 0 0 0 -31 0 0 -1 0 0 0 0 0 0 0 3 0 -4 -39 39 4 0 -4 0 0 0 0 0 9 -4 1 0 0 0 0 0 0 0 0 0 -29 -4 0 0 0 31 0 0 0 0 0 0 0 0 0 0 0 0 0 0 0 0 0 0 0 0 0 0 0 0 0 0 0 0 0 0 0 0 0 0 0 0 0 0 0 0 0 0 0 0 0 0 0 0 0 0 0 0 0 0 0 0 0 0 0 0 0 0 0 0 0 0 0 0 0 0 0 0 0 0 0 0 0 0 0 0 0 0 0 0 0 0 0 0 
-97 -101 0 -3 -9 0 -7 0 -78 -30 0 0 -97 2 0 -4 0 -6 0 -7 -30 -6 0 -9 0 -10 0 0 -65 0 -30 0 -3 -36 1 -18 -3 0 0 0 -12 0 -9 0 3 0 -40 0 0 0 3 0 -18 0 0 0 0 0 0 0 7 0 2 0 0 -12 0 -10 0 0 0 0 0 0 0 -2 -12 0 10 0 0 -9 0 0 -12 0 0 0 0 0 0 0 -72 0 0 0 9 0 0 4 -12 0 0 0 0 0 0 -87 0 0 -97 0 0 0 0 0 0 -40 -4 8 0 0 -7 0 0 0 4 0 0 0 0 0 0 -2 0 0 -5 1 0 0 -2 0 0 0 0 0 0 0 0 0 0 0 0 0 -3 0 -76 12 0 0 0 0 5 0 0 0 0 0 -9 -5 0 0 -3 7 10 0 0 0 -83 0 0 -9 0 0 0 -5 0 0 3 0 0 0 0 0 0 0 0 0 -2 3 0 0 0 0 0 0 0 0 0 0 0 0 0 0 7 0 -2 0 0 0 0 0 0 -39 9 0 0 0 0 0 0 0 0 0 0 0 23 12 0 0 0 0 -1 17 -12 0 -3 0 0 0 7 0 0 0 0 -2 -13 0 9 -42 0 0 0 0 0 40 7 0 -1 0 2 0 0 -12 -5 0 3 0 -30 19 -29 0 9 5 0 -3 0 0 -2 2 -3 0 0 0 0 0 0 -7 -97 0 0 39 -9 0 0 -23 -12 0 0 0 0 0 0 0 0 0 0 0 0 0 0 0 0 0 0 0 0 0 0 0 0 0 0 0 0 0 0 0 0 0 0 0 0 0 0 0 0 0 0 0 0 0 0 0 0 0 0 0 0 0 0 0 0 0 0 0 0 0 0 0 0 0 0 0 0 0 0 0 0 0 0 0 0 0 0 0 0 0 0 0 0 0 0 0 0 
-102 -101 -1 0 -9 0 -7 0 -79 -20 -6 0 -56 -4 0 -4 0 -6 0 5 -20 -6 0 -8 3 12 15 0 -58 0 0 0 0 -56 -39 -29 -3 0 -4 0 9 -21 0 0 0 0 -49 0 0 0 0 0 -23 -20 0 -1 0 0 -100 0 -7 13 -4 0 0 9 0 12 -6 0 0 0 -1 0 0 0 9 9 2 21 9 0 0 0 0 0 0 0 0 0 0 -6 -51 -1 0 0 -9 0 0 -5 9 0 0 0 2 -69 0 0 0 0 -46 -21 0 0 0 0 0 51 0 9 -10 0 0 3 0 0 -51 60 0 0 0 0 0 33 0 0 55 1 0 0 0 0 0 0 0 0 0 0 0 0 0 0 0 0 0 -61 0 0 0 0 0 0 1 0 0 -10 0 0 0 0 0 0 -3 0 -24 20 0 0 0 0 21 0 0 0 0 50 -10 0 0 -3 0 0 0 0 13 0 0 0 0 -1 4 0 0 0 21 0 0 0 0 0 0 0 0 0 0 0 46 0 0 0 0 0 -61 0 -5 0 0 0 0 0 0 0 0 0 0 0 26 -60 0 0 0 0 7 17 -21 0 0 0 0 100 -7 6 1 0 0 1 -84 0 89 -9 -2 0 21 0 0 -51 0 0 -1 2 -2 0 0 0 -1 10 7 -4 0 22 2 -20 0 -50 10 0 3 0 33 0 1 0 0 0 -15 -6 0 0 -46 0 0 0 5 0 0 -26 60 0 0 0 0 0 0 0 0 0 0 0 0 0 0 0 0 0 0 0 0 0 0 0 0 0 0 0 0 0 0 0 0 0 0 0 0 0 0 0 0 0 0 0 0 0 0 0 0 0 0 0 0 0 0 0 0 0 0 0 0 0 0 0 0 0 0 0 0 0 0 0 0 0 0 0 0 0 0 0 0 0 0 0 0 0 0 0 0 
-5 -50 -1 0 0 -1 -4 -1 0 0 0 -35 0 0 5 -9 0 0 0 -1 0 -3 0 2 -7 -1 -6 0 0 0 0 0 -1 -50 0 -46 -4 0 -4 0 0 -10 0 0 0 -2 35 0 0 0 -3 0 -3 0 0 0 5 0 0 0 -1 0 0 0 0 0 0 -1 -6 2 0 0 0 0 0 0 0 0 0 0 0 0 0 0 0 0 9 0 0 0 0 0 1 0 0 0 -1 0 0 9 0 0 0 0 0 0 2 0 -3 0 0 0 0 0 0 0 0 35 0 0 0 0 0 -2 0 0 1 35 0 0 0 0 0 0 0 3 -9 2 0 0 0 0 0 0 0 0 0 0 2 0 0 0 0 0 0 0 0 0 0 0 0 0 0 0 0 0 0 0 0 0 0 0 -1 0 0 0 0 0 0 0 1 0 0 0 0 0 0 0 0 2 0 0 0 0 0 0 0 0 0 -3 -4 0 0 0 1 0 0 0 0 0 0 0 0 0 0 0 0 0 0 0 0 0 0 -11 9 0 0 0 0 0 0 0 0 2 0 0 0 -35 0 0 0 0 0 0 0 0 0 0 -5 0 -1 6 0 0 0 0 -37 9 19 -10 0 3 0 0 0 -35 0 0 1 -3 3 0 -2 0 0 0 1 0 0 11 -11 0 0 0 0 0 -2 0 0 0 0 3 3 -3 -1 0 0 0 0 0 0 11 -9 -2 0 0 35 0 0 0 0 0 0 0 0 0 0 0 0 0 0 0 0 0 0 0 0 0 0 0 0 0 0 0 0 0 0 0 0 0 0 0 0 0 0 0 0 0 0 0 0 0 0 0 0 0 0 0 0 0 0 0 0 0 0 0 0 0 0 0 0 0 0 0 0 0 0 0 0 0 0 0 0 0 0 0 0 0 0 0 0 0 0 0 0 
-102 -101 0 0 0 0 -7 0 -95 -21 0 28 0 0 -5 -9 -2 0 2 -5 -15 0 11 0 2 0 6 5 -13 0 -2 0 3 -88 -41 17 -8 0 4 -1 0 11 0 7 0 -2 -24 0 0 -6 0 0 0 -13 5 0 0 0 -100 0 -12 0 0 10 0 0 0 0 6 0 0 0 0 0 0 4 0 6 6 0 6 0 0 0 0 -1 0 0 -6 0 0 0 -1 2 0 0 3 0 0 0 0 0 0 0 0 0 0 0 -4 0 0 -60 0 -6 -1 0 0 76 0 0 0 0 0 3 0 -5 -1 82 0 0 0 -100 0 0 0 -8 0 12 0 0 4 0 0 0 0 0 0 0 2 0 0 -60 0 0 0 0 0 0 0 0 0 0 0 0 0 0 0 0 0 0 0 0 -3 0 0 19 0 0 0 0 0 0 0 0 0 0 0 0 0 -3 0 -78 0 2 0 0 0 0 2 -6 0 0 -7 0 0 0 0 0 0 0 0 0 0 0 0 0 0 0 0 0 0 0 0 -6 0 0 0 0 0 0 0 0 0 0 0 0 0 -82 0 0 0 0 3 0 -65 -7 0 -5 5 100 -7 -6 6 6 0 0 17 0 -17 0 0 4 0 6 1 -76 0 5 -1 0 -4 0 -2 0 0 0 3 0 0 0 0 -19 0 0 0 0 3 -2 0 -2 -5 11 0 7 0 0 0 0 0 0 0 6 0 0 0 0 82 0 0 0 0 0 0 0 0 0 0 0 0 0 0 0 0 0 0 0 0 0 0 0 0 0 0 0 0 0 0 0 0 0 0 0 0 0 0 0 0 0 0 0 0 0 0 0 0 0 0 0 0 0 0 0 0 0 0 0 0 0 0 0 0 0 0 0 0 0 0 0 0 0 0 0 0 0 0 0 0 0 0 0 0 0 0 0 0 
-57 -1 0 0 0 0 -7 0 -50 0 0 0 -3 0 0 -9 -3 0 0 0 0 0 0 0 0 0 24 0 -1 0 0 0 3 0 -36 3 0 0 0 0 10 0 0 0 0 0 -50 0 0 0 0 0 0 0 0 0 0 0 -50 0 0 0 0 0 0 10 0 0 3 0 0 0 0 0 0 0 10 0 0 21 0 0 0 0 0 0 2 0 0 0 0 0 -1 0 0 0 -7 0 0 0 10 0 0 0 3 0 0 0 0 0 0 -21 0 0 0 0 0 0 0 0 0 0 0 3 0 0 -1 0 0 0 0 0 0 0 0 0 0 1 0 0 0 0 0 0 0 0 0 0 0 0 0 0 0 0 0 -90 0 0 0 0 0 0 0 0 0 -3 0 0 0 0 0 0 0 0 0 0 0 0 0 0 0 0 0 0 0 0 0 0 0 -3 0 0 0 0 0 0 0 0 0 0 0 0 0 0 0 0 0 0 0 0 0 0 0 0 0 0 0 0 0 0 0 0 -90 0 0 0 0 0 0 0 0 0 0 0 0 0 0 0 0 0 0 0 0 0 -21 0 0 0 0 50 0 -3 0 0 0 0 3 2 -5 0 -3 0 21 0 0 0 0 0 -1 0 0 0 0 0 0 3 0 0 0 0 0 0 0 0 0 0 3 0 0 0 0 0 0 0 0 0 0 0 0 0 0 0 0 0 0 0 0 0 0 0 0 0 0 0 0 0 0 0 0 0 0 0 0 0 0 0 0 0 0 0 0 0 0 0 0 0 0 0 0 0 0 0 0 0 0 0 0 0 0 0 0 0 0 0 0 0 0 0 0 0 0 0 0 0 0 0 0 0 0 0 0 0 0 0 0 0 0 0 0 0 0 0 0 0 0 0 0 0 0 0 0 0 0 0 0 
-102 -79 -1 0 -9 -1 -7 2 -90 -6 5 -17 -8 0 -3 0 -3 -6 0 7 0 -9 9 -7 0 0 21 5 0 0 0 0 -3 -79 -29 -46 0 0 0 1 0 0 0 0 0 -2 -61 0 0 0 0 0 -9 0 0 0 0 0 -97 0 0 0 0 0 0 0 0 0 0 -7 0 0 0 0 0 4 0 4 0 21 4 0 0 0 0 1 -17 0 -6 0 0 0 0 0 0 0 -3 0 0 -10 0 0 0 0 8 -87 -7 0 0 0 0 -21 0 0 1 0 0 36 0 0 0 0 0 3 0 0 0 40 0 0 0 0 0 0 0 0 9 6 0 0 4 0 0 0 0 0 0 0 2 0 0 0 0 0 0 -38 0 0 0 0 0 0 0 0 0 -8 0 0 0 0 0 0 0 0 0 0 -87 0 0 0 0 0 0 0 0 0 0 0 0 -3 0 0 0 0 0 0 0 0 0 -6 0 0 -12 0 0 0 0 0 0 0 -38 0 0 0 0 0 0 0 0 0 0 0 0 -39 -9 0 0 0 0 0 0 0 0 -7 0 0 9 -40 0 0 0 0 -7 0 -26 0 0 0 0 97 0 0 6 6 0 0 -55 -17 82 0 -8 0 21 0 -1 -36 0 0 0 0 -4 0 -2 0 0 8 0 0 0 39 -39 0 0 0 0 0 3 0 0 0 0 6 3 9 0 0 0 0 0 0 0 39 9 7 0 -9 40 0 0 0 0 0 0 0 0 0 0 0 0 0 0 0 0 0 0 0 0 0 0 0 0 0 0 0 0 0 0 0 0 0 0 0 0 0 0 0 0 0 0 0 0 0 0 0 0 0 0 0 0 0 0 0 0 0 0 0 0 0 0 0 0 0 0 0 0 0 0 0 0 0 0 0 0 0 0 0 0 0 0 0 0 0 0 0 0 
-11 -51 0 0 -9 0 -2 0 0 0 0 0 -10 0 0 0 0 0 0 0 0 6 0 -9 0 0 0 0 -38 0 0 0 0 -13 0 0 0 0 0 0 0 -6 0 0 0 0 0 0 0 0 0 0 -11 0 0 0 0 0 0 0 0 0 0 0 0 0 0 0 0 0 0 0 0 0 0 0 0 0 0 0 0 0 0 0 0 0 -2 0 0 0 0 0 -38 0 0 0 0 0 0 0 0 0 0 0 0 0 0 0 0 0 0 0 0 0 0 0 0 0 0 8 -10 0 0 0 0 0 -9 0 0 0 0 0 0 0 0 0 0 0 0 0 0 0 0 0 0 0 0 0 0 0 0 0 0 0 0 0 0 0 0 0 0 -29 0 0 0 -10 0 0 0 0 0 0 0 0 8 0 0 0 0 0 -1 0 0 0 0 9 -10 0 0 0 0 0 0 0 0 0 0 0 0 0 -5 0 6 0 -1 0 0 0 0 0 0 0 0 0 0 0 0 0 0 0 0 0 0 -8 9 0 0 0 0 0 0 0 0 0 0 0 11 0 0 0 0 0 0 17 0 0 0 0 0 0 0 0 0 0 0 0 0 -2 2 -20 0 0 0 0 0 0 0 0 0 0 0 0 0 0 0 10 0 0 0 0 -8 0 0 -9 10 0 0 0 0 0 0 0 -6 0 1 0 0 0 0 0 0 8 -9 0 0 -11 0 0 0 0 0 0 0 0 0 0 0 0 0 0 0 0 0 0 0 0 0 0 0 0 0 0 0 0 0 0 0 0 0 0 0 0 0 0 0 0 0 0 0 0 0 0 0 0 0 0 0 0 0 0 0 0 0 0 0 0 0 0 0 0 0 0 0 0 0 0 0 0 0 0 0 0 0 0 0 0 0 0 0 0 0 0 0 0 0 
-27 -10 0 0 -3 0 0 0 -24 0 0 0 0 0 0 0 0 0 0 0 0 8 0 0 0 -3 0 0 0 0 0 0 0 -10 0 0 0 0 0 0 -5 19 0 0 0 0 0 0 0 0 0 0 8 0 0 0 0 0 0 0 0 0 0 0 0 12 0 0 0 0 0 0 0 -3 0 0 12 0 0 0 0 0 0 0 0 0 0 0 0 0 0 0 0 -3 0 0 2 0 0 0 12 0 0 0 0 0 0 0 0 0 0 0 0 0 0 0 0 0 0 0 0 0 0 0 0 0 0 0 0 0 0 0 0 0 -3 0 0 0 0 3 0 0 0 3 0 0 0 0 0 0 0 0 0 0 0 0 0 0 0 0 0 0 0 0 0 0 0 0 0 0 0 0 0 0 0 0 0 0 0 0 4 0 0 0 0 0 0 0 0 0 0 -24 0 0 0 0 0 0 -3 0 0 0 8 0 4 0 0 0 0 0 0 0 0 0 0 0 0 0 0 0 0 0 0 -10 0 0 0 0 0 0 0 0 0 0 0 0 -8 0 0 0 0 0 0 0 0 0 0 0 0 0 0 -27 0 0 0 0 0 0 0 8 0 0 0 0 0 0 0 0 0 0 0 -3 0 0 0 0 0 0 0 0 0 0 0 0 0 0 0 0 0 3 0 0 -8 0 -4 0 0 0 0 0 0 0 0 0 0 8 0 0 0 0 0 0 0 0 0 0 0 0 0 0 0 0 0 0 0 0 0 0 0 0 0 0 0 0 0 0 0 0 0 0 0 0 0 0 0 0 0 0 0 0 0 0 0 0 0 0 0 0 0 0 0 0 0 0 0 0 0 0 0 0 0 0 0 0 0 0 0 0 0 0 0 0 0 0 0 0 0 0 0 0 0 0 0 0 0 
#OUTPUT END
Model has been successfully processed
